lbl,CUST NO.,READY TIME,XCOORD.,YCOORD.,DEMAND,DUE DATE,SERVICE TIME
5,114,65,39,128,10,367,90
5,159,68,40,132,20,285,90
5,38,176,43,135,10,332,90
5,150,222,42,136,10,470,90
5,22,333,43,140,10,547,90
5,16,485,36,135,10,782,90
5,151,500,36,132,10,581,90
5,140,661,34,138,20,793,90
5,187,709,30,136,10,934,90
5,142,798,33,133,20,1034,90
5,111,987,33,131,30,1028,90
5,63,1020,32,128,20,1181,90
5,56,1056,35,123,20,1198,90
